DATASET = "thpack5";
INSTANCE = "005";

WIDTH = 233;
HEIGHT = 220;
LENGTH = 587;

NO_OF_SHAPES = 12;
size = [|
  88,54,39 |
  94,54,36 |
  87,77,43 |
  100,80,72 |
  83,40,36 |
  91,54,22 |
  109,58,54 |
  94,55,30 |
  34,32,31 |
  83,80,57 |
  108,40,26 |
  72,37,32 |
|];

verticality = [|
  0,1,1 |
  0,1,1 |
  0,1,1 |
  1,1,1 |
  0,1,1 |
  0,0,1 |
  0,1,1 |
  0,1,1 |
  1,1,1 |
  1,1,1 |
  0,1,1 |
  0,1,1 |
|];

box_count = [
  7,
  11,
  11,
  17,
  14,
  13,
  8,
  5,
  14,
  13,
  9,
  7,
];
